language ESSENCE' 1.0
$ loaded file: carseqdata/csplib-instance-19
letting numcars=200
letting numclasses=24
letting numoptions=5
letting optMax=[1, 2, 1, 2, 1]
letting windowSize=[2, 3, 3, 5, 5]
letting numberPerClass=[1, 1, 1, 2, 70, 2, 4, 2, 3, 2, 1, 4, 33, 15, 13, 23, 3, 1, 3, 3, 4, 1, 6, 2]
letting optionsRequired=[[0, 0, 1, 1, 1], [1, 1, 1, 0, 1], [0, 1, 1, 1, 0], [0, 1, 1, 0, 1], [0, 1, 0, 0, 0], [0, 1, 0, 0, 1], [0, 0, 0, 1, 1], [1, 0, 1, 1, 0], [1, 0, 0, 0, 1], [1, 1, 1, 0, 0], [1, 1, 0, 1, 0], [1, 0, 1, 0, 0], [1, 0, 0, 0, 0], [1, 1, 0, 0, 0], [0, 0, 1, 0, 0], [0, 0, 0, 1, 0], [0, 1, 1, 0, 0], [1, 0, 0, 1, 1], [0, 0, 1, 1, 0], [1, 0, 0, 1, 0], [0, 1, 0, 1, 0], [0, 0, 1, 0, 1], [0, 0, 0, 0, 1], [1, 1, 1, 1, 0]]
